 vasp.6.1.2 22Jul20 (build Apr 14 2021 21:39:43) complex

 executed on             LinuxIFC date 2022.04.24  12:23:20

 INCAR:
 POTCAR:    PAW_PBE Li 17Jan2003
 POTCAR:    PAW_PBE Mn_pv 02Aug2007
 POTCAR:    PAW_PBE O 08Apr2002
 POTCAR:    PAW_PBE Li 17Jan2003
   VRHFIN =Li: s1p0

   TITEL  = PAW_PBE Li 17Jan2003
   POMASS =    7.010; ZVAL   =    1.000    mass and valenz
   ENMAX  =  140.000; ENMIN  =  100.000 eV

   TITEL  = PAW_PBE Mn_pv 02Aug2007
   POMASS =   54.938; ZVAL   =   13.000    mass and valenz
   ENMAX  =  269.864; ENMIN  =  202.398 eV

   TITEL  = PAW_PBE O 08Apr2002
   POMASS =   16.000; ZVAL   =    6.000    mass and valenz
   ENMAX  =  400.000; ENMIN  =  300.000 eV

 Optimization of the real space projectors (new method)

 maximal supplied QI-value         = 18.33
 optimisation between [QCUT,QGAM] = [ 11.55, 23.28] = [ 37.34,151.76] Ry
 Optimized for a Real-space Cutoff    1.14 Angstroem

   l    n(q)    QCUT    max X(q) W(low)/X(q) W(high)/X(q)  e(spline)
   0      8    11.548    33.825    0.19E-03    0.87E-04    0.75E-07
   0      8    11.548     8.944    0.15E-03    0.55E-04    0.54E-07
   1      7    11.548     4.214    0.21E-03    0.27E-03    0.42E-07
 Optimization of the real space projectors (new method)

[...]

   l    n(q)    QCUT    max X(q) W(low)/X(q) W(high)/X(q)  e(spline)
   1     10    11.539     3.658    0.56E-04    0.12E-03    0.13E-06
   1     10    11.539     5.612    0.11E-03    0.23E-03    0.24E-06
   2      9    11.539    55.373    0.45E-04    0.92E-04    0.22E-06
   2      9    11.539    50.863    0.47E-04    0.95E-04    0.22E-06
   0     10    11.539    79.536    0.46E-04    0.27E-04    0.11E-06
   0     10    11.539    38.668    0.38E-04    0.25E-04    0.10E-06
 Optimization of the real space projectors (new method)

 maximal supplied QI-value         = 24.76
 optimisation between [QCUT,QGAM] = [ 11.64, 23.27] = [ 37.91,151.63] Ry
 Optimized for a Real-space Cutoff    1.14 Angstroem

   l    n(q)    QCUT    max X(q) W(low)/X(q) W(high)/X(q)  e(spline)
   0      8    11.635    20.381    0.10E-03    0.33E-03    0.24E-06
   0      8    11.635    15.268    0.11E-03    0.35E-03    0.26E-06
   1      7    11.635     5.964    0.24E-03    0.31E-03    0.30E-06
   1      7    11.635     5.382    0.22E-03    0.25E-03    0.26E-06
  PAW_PBE Li 17Jan2003                  :
  PAW_PBE Mn_pv 02Aug2007               :
  PAW_PBE O 08Apr2002                   :

 POSCAR: Li8 Mn16 O32
  positions in direct lattice
  velocities in cartesian coordinates

 METAGGA = SCAN     LMAXTAU =  6    LMIXTAU =  T

 ion  position               nearest neighbor table
   1  0.380  0.371  0.876-  48 1.94  51 1.96  49 1.97  50 1.98
   2  0.881  0.873  0.879-  26 1.98  25 1.99  24 1.99  27 2.11
   3  0.117  0.129  0.124-  28 1.93  29 1.97  31 2.02  30 2.02
   4  0.885  0.374  0.379-  33 1.94  35 1.99  32 1.99  34 2.01
   5  0.377  0.874  0.381-  41 1.95  40 1.97  43 1.98  42 2.03
   6  0.618  0.127  0.625-  45 1.93  44 1.94  47 1.96  46 1.97
   7  0.620  0.626  0.117-  53 1.94  52 1.97  54 1.98  55 1.99
   8  0.505  0.251  0.249-  49 1.89  31 1.90  35 1.91  45 1.91  42 1.91  54 1.93  18 2.85  17 2.86
                             9 2.86  11 2.86  19 2.93  10 2.96
   9  0.260  0.497  0.245-  48 1.90  31 1.90  34 1.91  43 1.92  36 1.92  54 1.96   8 2.86  16 2.87
                            11 2.90  10 2.95  21 2.97  22 2.97
  10  0.256  0.248  0.504-  40 1.91  36 1.95  33 1.99  45 2.00  51 2.14  31 2.17  15 2.91  11 2.91
                            20 2.94   9 2.95   8 2.96  23 2.99
  11  0.503  0.495  0.496-  50 1.88  36 1.91  45 1.91  41 1.91  54 1.94  32 1.95   8 2.86  13 2.89
                             9 2.90  14 2.91  10 2.91  12 2.97
  12  0.495  0.750  0.751-  39 1.93  27 1.98  53 1.98  41 2.00  46 2.17  50 2.17  16 2.91  15 2.94
                            14 2.95  13 2.97  17 2.97  11 2.97
  13  0.748  0.495  0.742-  52 1.88  47 1.89  38 1.91  50 1.92  27 1.95  32 1.96  20 2.87  11 2.89
                            19 2.90  14 2.92  12 2.97  21 3.00
  14  0.741  0.751  0.495-  44 1.87  37 1.90  55 1.91  41 1.94  32 1.94  27 1.96  18 2.86  11 2.91
                            13 2.92  22 2.94  12 2.95  23 2.97
  15  0.246  0.005  0.761-  46 1.90  51 1.91  28 1.91  40 1.91  39 1.92  26 1.96  16 2.88  20 2.90
                            17 2.90  10 2.91  12 2.94  23 2.98
  16  0.254  0.752  0.004-  28 1.89  48 1.90  43 1.92  53 1.92  39 1.93  25 1.95   9 2.87  15 2.88
                            12 2.91  17 2.93  21 2.96  22 2.96
  17  0.497  0.006  0.003-  46 1.90  49 1.95  42 1.96  53 1.96  28 2.16  24 2.17   8 2.86  15 2.90
                            16 2.93  19 2.94  18 2.95  12 2.97
  18  0.747  0.003  0.254-  24 1.89  35 1.90  30 1.91  44 1.92  55 1.93  42 1.94   8 2.85  14 2.86
                            19 2.93  23 2.93  17 2.95  22 2.97
  19  0.752  0.251  0.998-  52 1.94  24 1.94  29 1.96  49 1.96  35 2.17  47 2.17  13 2.90  18 2.93
                             8 2.93  20 2.93  17 2.94  21 2.95
  20  0.998  0.253  0.746-  33 1.90  51 1.90  47 1.90  38 1.90  29 1.93  26 1.96  13 2.87  21 2.88
                            23 2.89  15 2.90  19 2.93  10 2.94
  21  0.006  0.498  0.995-  29 1.93  25 1.95  38 1.98  34 1.99  48 2.16  52 2.20  20 2.88  19 2.95
                            16 2.96  22 2.96   9 2.97  13 3.00
  22  1.000  0.746  0.254-  37 1.92  25 1.96  34 2.05  30 2.06  43 2.13  55 2.13  23 2.93  14 2.94
                            21 2.96  16 2.96  18 2.97   9 2.97
  23  0.997  0.999  0.504-  30 1.93  26 1.95  33 1.98  37 1.98  40 2.17  44 2.19  20 2.89  18 2.93
                            22 2.93  14 2.97  15 2.98  10 2.99
  24  0.754  0.016  0.026-  18 1.89  19 1.94   2 1.99  17 2.17
  25  0.023  0.734  0.018-  16 1.95  21 1.95  22 1.96   2 1.99
  26  0.014  0.015  0.739-  23 1.95  15 1.96  20 1.96   2 1.98
  27  0.730  0.732  0.732-  13 1.95  14 1.96  12 1.98   2 2.11
  28  0.240  0.982  0.991-  16 1.89  15 1.91   3 1.93  17 2.16
  29  0.984  0.265  0.979-  20 1.93  21 1.93  19 1.96   3 1.97
  30  0.975  0.996  0.271-  18 1.91  23 1.93   3 2.02  22 2.06
  31  0.278  0.265  0.242-   8 1.90   9 1.90   3 2.02  10 2.17
  32  0.735  0.515  0.506-  14 1.94  11 1.95  13 1.96   4 1.99
  33  0.019  0.239  0.517-  20 1.90   4 1.94  23 1.98  10 1.99
  34  0.033  0.499  0.235-   9 1.91  21 1.99   4 2.01  22 2.05
  35  0.732  0.234  0.259-  18 1.90   8 1.91   4 1.99  19 2.17
  36  0.276  0.483  0.477-  11 1.91   9 1.92  10 1.95
  37  0.967  0.761  0.483-  14 1.90  22 1.92  23 1.98
  38  0.976  0.484  0.757-  20 1.90  13 1.91  21 1.98
  39  0.266  0.771  0.772-  15 1.92  16 1.93  12 1.93
  40  0.254  0.016  0.529-  10 1.91  15 1.91   5 1.97  23 2.17
  41  0.511  0.728  0.510-  11 1.91  14 1.94   5 1.95  12 2.00
  42  0.516  0.018  0.240-   8 1.91  18 1.94  17 1.96   5 2.03
  43  0.253  0.732  0.236-  16 1.92   9 1.92   5 1.98  22 2.13
  44  0.737  0.979  0.486-  14 1.87  18 1.92   6 1.94  23 2.19
  45  0.493  0.263  0.480-  11 1.91   8 1.91   6 1.93  10 2.00
  46  0.472  0.013  0.774-  15 1.90  17 1.90   6 1.97  12 2.17
  47  0.771  0.265  0.737-  13 1.89  20 1.90   6 1.96  19 2.17
  48  0.262  0.520  0.016-   9 1.90  16 1.90   1 1.94  21 2.16
  49  0.519  0.243  0.020-   8 1.89  17 1.95  19 1.96   1 1.97
  50  0.520  0.488  0.723-  11 1.88  13 1.92   1 1.98  12 2.17
  51  0.224  0.236  0.761-  20 1.90  15 1.91   1 1.96  10 2.14
  52  0.745  0.486  0.969-  13 1.88  19 1.94   7 1.97  21 2.20
  53  0.482  0.768  0.989-  16 1.92   7 1.94  17 1.96  12 1.98
  54  0.493  0.485  0.262-   8 1.93  11 1.94   9 1.96   7 1.98
  55  0.746  0.768  0.264-  14 1.91  18 1.93   7 1.99  22 2.13

IMPORTANT INFORMATION: All symmetrisations will be switched off!
NOSYMM: (Re-)initialisation of all symmetry stuff for point group C_1.

                                     Primitive cell

  volume of cell :     566.4773

  direct lattice vectors                    reciprocal lattice vectors
     8.374650771  0.066630990  0.015478538     0.119409548 -0.000256429  0.000246837
     0.017539788  8.196291188  0.029771153    -0.000970474  0.122008995 -0.000142031
    -0.017039607  0.009471673  8.252888558    -0.000220455 -0.000439650  0.121169746

  length of vectors
     8.374930137  8.196364023  8.252911584     0.119410079  0.122012937  0.121170744

  position of ions in fractional coordinates (direct lattice)
     0.379654257  0.371467170  0.875990522
     0.881465641  0.872574982  0.879195146
     0.116759903  0.128799605  0.123968509
     0.884635223  0.373617263  0.379498038
     0.376528411  0.874123920  0.380962205
     0.617641949  0.126633096  0.624719795
     0.620489250  0.626435118  0.116965321
     0.504708834  0.250784250  0.249325654
     0.260124640  0.497216942  0.244660545
     0.256117227  0.247980246  0.503835516
     0.502959020  0.495467182  0.496027038
     0.495193286  0.750125535  0.750657366
     0.748281042  0.494735160  0.741675045
     0.740826323  0.751143038  0.495164968
     0.246151018  0.004644594  0.760867421
     0.253735363  0.751921174  0.004250839
     0.496835764  0.006442117  0.003492066
     0.746876263  0.003271748  0.254497090
     0.751529111  0.250989995  0.998085755
     0.998191485  0.253409896  0.746115804
     0.005735480  0.498100180  0.994508036
     0.999524030  0.746361088  0.253598706
     0.996625762  0.999425749  0.503869989
     0.754437364  0.015689832  0.025844187
     0.022630107  0.733955239  0.017752028
     0.013705941  0.015044265  0.739131307
     0.730027047  0.732229319  0.731819170
     0.240431836  0.981942700  0.991384721
     0.983825540  0.264544441  0.978810172
     0.974556969  0.996179323  0.270664967
     0.277774259  0.265409713  0.242056139
     0.734640734  0.514600837  0.505505705
     0.019079718  0.238839964  0.517411519
     0.032782733  0.498781140  0.234574773
     0.731625093  0.234357455  0.259251745
     0.276450393  0.483122285  0.476905602
     0.966748632  0.760897824  0.482919860
     0.976146638  0.484454184  0.756773225
     0.266041511  0.771117202  0.771626603
     0.254284513  0.016330347  0.529434426
     0.510925153  0.728131294  0.509809165
     0.515605371  0.017659896  0.239723820
     0.252560091  0.731567070  0.235920100
     0.736698944  0.979088001  0.486232631
     0.492810705  0.263446823  0.480010792
     0.472476483  0.012503957  0.774082959
     0.771389275  0.264706693  0.736654257
     0.262199009  0.520093266  0.015615439
     0.519154316  0.242535377  0.020393574
     0.519896175  0.488158290  0.722673481
     0.224442123  0.236468116  0.760765863
     0.745197001  0.486042740  0.969427252
     0.481686229  0.767959633  0.989099659
     0.493111908  0.485370797  0.261774958
     0.746234133  0.767974891  0.264304689

  ion indices of the primitive-cell ions
   primitive index   ion index
                 1           1
                 2           2
                 3           3
                 4           4
                 5           5
                 6           6
                 7           7
                 8           8
                 9           9
                10          10
                11          11
                12          12
                13          13
[...]
    8        0.390   6.479   4.786  11.655
    9        0.383   6.464   4.763  11.610
   10        0.317   6.336   4.801  11.454
   11        0.386   6.467   4.777  11.631
   12        0.311   6.322   4.789  11.422
   13        0.383   6.463   4.766  11.612
   14        0.384   6.463   4.770  11.617
   15        0.384   6.466   4.764  11.614
   16        0.384   6.467   4.768  11.619
   17        0.326   6.349   4.817  11.491
   18        0.385   6.470   4.767  11.622
   19        0.323   6.345   4.812  11.480
   20        0.386   6.470   4.774  11.630
   21        0.315   6.328   4.793  11.436
   22        0.305   6.316   4.781  11.403
   23        0.316   6.329   4.794  11.439
   24        1.574   3.501   0.000   5.075
   25        1.573   3.511   0.000   5.085
   26        1.575   3.503   0.000   5.077
   27        1.574   3.488   0.000   5.062
   28        1.578   3.505   0.000   5.082
   29        1.576   3.520   0.000   5.096
   30        1.574   3.500   0.000   5.074
   31        1.578   3.492   0.000   5.069
   32        1.578   3.497   0.000   5.075
   33        1.575   3.515   0.000   5.090
   34        1.573   3.494   0.000   5.066
   35        1.578   3.495   0.000   5.073
   36        1.585   3.464   0.000   5.050
   37        1.583   3.469   0.000   5.052
   38        1.586   3.458   0.000   5.044
   39        1.585   3.462   0.000   5.048
   40        1.574   3.503   0.000   5.076
   41        1.577   3.509   0.000   5.085
   42        1.578   3.504   0.000   5.082
   43        1.576   3.493   0.000   5.069
   44        1.579   3.499   0.000   5.077
   45        1.579   3.515   0.000   5.094
   46        1.575   3.504   0.000   5.080
   47        1.578   3.498   0.000   5.076
   48        1.578   3.501   0.000   5.079
   49        1.577   3.523   0.000   5.100
   50        1.578   3.496   0.000   5.075
   51        1.577   3.500   0.000   5.078
   52        1.574   3.500   0.000   5.074
   53        1.575   3.513   0.000   5.088
   54        1.579   3.500   0.000   5.080
   55        1.576   3.489   0.000   5.065
tot         56.851 215.775  76.524 349.150

 magnetization (x)

[...]

  FORCE on cell =-STRESS in cart. coord.  units (eV):
  Direction    XX          YY          ZZ          XY          YZ          ZX
  Alpha Z  1611.95487  1611.95487  1611.95487
  Ewald   -9228.73749 -8864.93823 -8927.10573  -458.13082  -457.95886   175.20014
  Hartree  5663.49441  5784.41988  5768.60496  -369.74824  -375.74867   145.89230
  E(xc)   -2402.67046 -2403.36554 -2403.22946     0.08892    -0.01376     0.00325
  Local   -2820.80155 -3258.46697 -3190.05747   826.01022   830.78751  -320.11665
  n-local -1220.37082 -1207.46551 -1209.09567    -0.43244    -0.39902     0.03020
  augment  1938.99862  1916.86182  1920.88337     0.27548     1.78140    -0.44563
  Kinetic  6458.13449  6420.97397  6428.07651     1.92632     1.54897    -0.56109
  Fock        0.00000     0.00000     0.00000     0.00000     0.00000     0.00000
  Total       0.00206    -0.02570     0.03138    -0.01056    -0.00243     0.00252
  in kB       0.00583    -0.07268     0.08876    -0.02988    -0.00688     0.00713

 VOLUME and BASIS-vectors are now :
  energy-cutoff  :      520.00
  volume of cell :      566.48
      direct lattice vectors                 reciprocal lattice vectors
     8.374650771  0.066630990  0.015478538     0.119409548 -0.000256429  0.000246837
     0.017539788  8.196291188  0.029771153    -0.000970474  0.122008995 -0.000142031
    -0.017039607  0.009471673  8.252888558    -0.000220455 -0.000439650  0.121169746

  length of vectors
     8.374930137  8.196364023  8.252911584     0.119410079  0.122012937  0.121170744

 FORCES acting on ions:
    Electron-Ion                     Ewald-Force                    Non-Local-Force
   0.257E+01 -.335E+01 0.501E+01   -.266E+01 0.340E+01 -.483E+01   0.852E-01 -.421E-01 -.207E+00
   0.507E+01 0.529E+01 0.333E+01   -.484E+01 -.498E+01 -.306E+01   -.284E+00 -.356E+00 -.323E+00
   0.181E+01 0.832E+00 -.840E+01   -.169E+01 -.993E+00 0.800E+01   -.163E+00 0.202E+00 0.486E+00
   -.447E+01 -.458E+01 0.631E+01   0.456E+01 0.434E+01 -.612E+01   -.992E-01 0.296E+00 -.219E+00
   0.877E+01 -.147E+01 0.128E+00   -.874E+01 0.128E+01 0.679E-01   -.486E-01 0.233E+00 -.224E+00
   -.201E+01 0.592E+01 -.706E+01   0.203E+01 -.585E+01 0.683E+01   -.261E-01 -.795E-01 0.284E+00
   -.929E+01 -.148E+01 0.167E+01   0.912E+01 0.156E+01 -.181E+01   0.201E+00 -.834E-01 0.165E+00
   0.111E+02 0.822E+01 0.987E+01   -.110E+02 -.861E+01 -.102E+02   -.137E+00 0.411E+00 0.324E+00
   0.894E+02 -.298E+02 -.255E+02   -.908E+02 0.299E+02 0.243E+02   0.139E+01 -.567E-01 0.121E+01
   0.551E+02 0.346E+01 0.420E+01   -.559E+02 -.468E+01 -.378E+01   0.781E+00 0.123E+01 -.414E+00
   0.313E+02 -.512E+02 -.310E+02   -.322E+02 0.511E+02 0.327E+02   0.926E+00 0.860E-01 -.169E+01
   -.970E+01 0.678E-01 0.792E+01   0.863E+01 0.208E+00 -.725E+01   0.107E+01 -.265E+00 -.668E+00
   -.406E+02 -.747E+02 -.224E+02   0.406E+02 0.732E+02 0.244E+02   -.152E-01 0.157E+01 -.192E+01
   -.405E+02 0.198E+01 -.362E+02   0.414E+02 -.442E+00 0.351E+02   -.931E+00 -.154E+01 0.110E+01
   0.497E+02 0.449E+02 0.299E+02   -.484E+02 -.441E+02 -.302E+02   -.133E+01 -.806E+00 0.324E+00
   0.540E+02 0.701E+01 0.557E+01   -.535E+02 -.705E+01 -.513E+01   -.583E+00 0.654E-01 -.433E+00
   -.271E+02 0.417E+02 0.246E+02   0.272E+02 -.417E+02 -.265E+02   -.104E+00 0.245E-01 0.187E+01
   -.665E+02 0.338E+02 0.283E+02   0.674E+02 -.335E+02 -.288E+02   -.931E+00 -.305E+00 0.565E+00
   -.383E+02 0.568E+01 -.226E+01   0.382E+02 -.585E+01 0.244E+01   0.451E-01 0.181E+00 -.176E+00
   -.135E+02 -.622E+01 0.232E+02   0.140E+02 0.689E+01 -.238E+02   -.487E+00 -.661E+00 0.615E+00
   0.164E+02 -.596E+02 -.499E+01   -.162E+02 0.594E+02 0.501E+01   -.132E+00 0.260E+00 -.122E-01
   -.145E+02 0.271E+02 -.101E+02   0.147E+02 -.274E+02 0.110E+02   -.195E+00 0.250E+00 -.848E+00
   -.522E+02 0.615E+02 -.222E+01   0.525E+02 -.614E+02 0.181E+01   -.261E+00 -.125E+00 0.412E+00
   -.207E+03 0.250E+03 0.267E+03   0.213E+03 -.261E+03 -.278E+03   -.607E+01 0.104E+02 0.112E+02
   0.250E+03 -.207E+03 0.218E+03   -.260E+03 0.218E+03 -.227E+03   0.929E+01 -.103E+02 0.972E+01
   0.240E+03 0.268E+03 -.204E+03   -.249E+03 -.278E+03 0.214E+03   0.964E+01 0.104E+02 -.102E+02
   -.229E+03 -.249E+03 -.255E+03   0.239E+03 0.259E+03 0.265E+03   -.100E+02 -.103E+02 -.107E+02
   0.215E+03 -.229E+03 -.260E+03   -.221E+03 0.241E+03 0.271E+03   0.631E+01 -.115E+02 -.116E+02
   -.202E+03 0.215E+03 -.255E+03   0.211E+03 -.226E+03 0.265E+03   -.910E+01 0.114E+02 -.103E+02
   -.263E+03 -.198E+03 0.214E+03   0.274E+03 0.206E+03 -.225E+03   -.105E+02 -.783E+01 0.111E+02
   0.281E+03 0.263E+03 0.183E+03   -.293E+03 -.275E+03 -.190E+03   0.115E+02 0.123E+02 0.639E+01
   -.266E+03 0.204E+03 0.239E+03   0.277E+03 -.214E+03 -.250E+03   -.111E+02 0.104E+02 0.107E+02
   0.178E+03 -.217E+03 0.269E+03   -.185E+03 0.226E+03 -.281E+03   0.704E+01 -.923E+01 0.118E+02
   0.251E+03 0.205E+03 -.214E+03   -.261E+03 -.214E+03 0.223E+03   0.100E+02 0.864E+01 -.902E+01
   -.280E+03 -.259E+03 -.182E+03   0.291E+03 0.271E+03 0.189E+03   -.116E+02 -.121E+02 -.663E+01
   0.282E+03 -.245E+03 -.255E+03   -.298E+03 0.259E+03 0.268E+03   0.155E+02 -.141E+02 -.138E+02
   -.266E+03 0.221E+03 -.238E+03   0.279E+03 -.234E+03 0.254E+03   -.135E+02 0.129E+02 -.152E+02
   -.255E+03 -.292E+03 0.214E+03   0.269E+03 0.308E+03 -.227E+03   -.139E+02 -.163E+02 0.129E+02
   0.242E+03 0.259E+03 0.267E+03   -.256E+03 -.273E+03 -.282E+03   0.143E+02 0.142E+02 0.148E+02
   -.167E+03 0.258E+03 0.254E+03   0.173E+03 -.270E+03 -.264E+03   -.563E+01 0.116E+02 0.998E+01
   0.260E+03 -.242E+03 0.185E+03   -.272E+03 0.253E+03 -.193E+03   0.112E+02 -.105E+02 0.836E+01
   0.249E+03 0.261E+03 -.207E+03   -.259E+03 -.274E+03 0.217E+03   0.104E+02 0.125E+02 -.102E+02
   -.154E+03 -.259E+03 -.270E+03   0.160E+03 0.269E+03 0.282E+03   -.578E+01 -.106E+02 -.119E+02
   0.170E+03 -.233E+03 -.267E+03   -.176E+03 0.245E+03 0.279E+03   0.555E+01 -.127E+02 -.111E+02
   -.185E+03 0.250E+03 -.251E+03   0.193E+03 -.262E+03 0.262E+03   -.885E+01 0.121E+02 -.109E+02
   -.257E+03 -.184E+03 0.228E+03   0.268E+03 0.191E+03 -.240E+03   -.107E+02 -.653E+01 0.114E+02
   0.229E+03 0.271E+03 0.184E+03   -.240E+03 -.284E+03 -.190E+03   0.111E+02 0.126E+02 0.654E+01
   -.168E+03 0.226E+03 0.272E+03   0.174E+03 -.237E+03 -.284E+03   -.595E+01 0.112E+02 0.121E+02
   0.198E+03 -.218E+03 0.259E+03   -.207E+03 0.229E+03 -.270E+03   0.884E+01 -.108E+02 0.117E+02
   0.254E+03 0.181E+03 -.257E+03   -.265E+03 -.188E+03 0.270E+03   0.109E+02 0.649E+01 -.126E+02
   -.228E+03 -.263E+03 -.191E+03   0.238E+03 0.275E+03 0.198E+03   -.108E+02 -.119E+02 -.695E+01
   0.165E+03 -.255E+03 -.260E+03   -.171E+03 0.266E+03 0.272E+03   0.554E+01 -.105E+02 -.113E+02
   -.263E+03 0.208E+03 -.196E+03   0.274E+03 -.216E+03 0.205E+03   -.110E+02 0.852E+01 -.920E+01
   -.238E+03 -.257E+03 0.235E+03   0.249E+03 0.269E+03 -.246E+03   -.106E+02 -.118E+02 0.110E+02
   0.160E+03 0.252E+03 0.276E+03   -.166E+03 -.263E+03 -.288E+03   0.614E+01 0.104E+02 0.124E+02
   0.274E+01 0.128E+01 -.377E+00   -.256E-12 -.625E-12 -.227E-12   -.320E+01 -.665E+00 0.691E+00

 POSITION                                       TOTAL-FORCE (eV/Angst)
      3.17106      3.07825      7.24639        -0.002072      0.001143      0.001406
      7.38229      7.21894      7.29552        -0.001011      0.000898     -0.001488
      0.97797      1.06463      1.02874        -0.001221      0.001568     -0.001262
      7.40860      3.12481      3.15677         0.002952     -0.002100      0.001810
      3.16213      7.19327      3.17589         0.003606     -0.001770     -0.002766
      5.16411      1.08499      5.16907         0.003276     -0.003153     -0.002536
      5.20538      5.17690      0.99356        -0.002238      0.000713     -0.001434
      4.22691      2.09149      2.07294        -0.003338      0.001580      0.002562
      2.18301      4.09498      2.03799        -0.000773     -0.004323      0.001973
      2.14066      2.05436      4.16945         0.000233     -0.004032      0.001575
      4.21234      4.09920      4.11619         0.001297     -0.000426      0.002486
      4.14744      6.18835      6.22509         0.000764      0.000673     -0.000846
      6.26263      4.11188      6.14727         0.000245     -0.001075     -0.004450
      6.20890      6.21064      4.12037         0.001966     -0.004353      0.001485
      2.04855      0.06168      6.28330         0.002483      0.001001     -0.001699
      2.13806      6.17991      0.06139         0.001486      0.002567     -0.003529
      4.16088      0.08594      0.03670         0.001409      0.002642     -0.000854
      6.25055      0.07899      2.11199        -0.000361      0.000908     -0.001722
      6.28119      2.11672      8.25620        -0.000112      0.002444      0.000697
      8.35124      2.15060      6.18061         0.001586     -0.001558      0.002327
      0.03982      4.09238      8.22248        -0.002789      0.002798     -0.001810
      8.37943      6.18639      2.13061        -0.001030      0.000702      0.002437
      8.35534      8.26276      4.20356        -0.000633     -0.000782      0.000203
      6.31798      0.17911      0.22543         0.000197      0.001758     -0.000056
      0.20209      6.01739      0.16871         0.001854      0.006723     -0.000146
      0.10245      0.13122      6.10063         0.000690     -0.001920      0.002569
      6.11409      6.05714      6.07272         0.001205     -0.000550     -0.002645
      2.01386      8.07370      8.21474         0.000729      0.002129      0.001283
      8.22716      2.24311      8.10112         0.001516      0.006678     -0.000850
      8.17444      8.23248      2.27851         0.001458     -0.002560     -0.001904
      2.32679      2.19618      2.00986        -0.001197     -0.001118      0.005928
      6.15277      4.27156      4.19857        -0.000879     -0.002962     -0.000496
      0.15516      1.96377      4.27755        -0.002862     -0.005487      0.000940
      0.27930      4.09256      1.95128        -0.000589      0.005549      0.003497
      6.12680      1.97207      2.15788         0.000004      0.000992     -0.001112
      2.31552      3.98275      3.95451        -0.001154     -0.003664      0.002117
      8.10130      6.30553      4.02310        -0.001336     -0.001351      0.000288
      8.17049      4.04294      6.27510        -0.001228      0.001838     -0.004345
      2.22838      6.34534      6.39522        -0.000183     -0.000744      0.002201
      2.12081      0.15581      4.37379         0.001141     -0.004208      0.001678
      4.28290      6.00685      4.23698        -0.001082     -0.001654      0.000639
      4.31424      0.18137      1.98692         0.000757     -0.001301     -0.000873
      2.12391      6.01520      1.97271         0.004005      0.003066     -0.000067
      6.17848      8.07858      4.05338         0.000287     -0.001778     -0.001273
      4.12356      2.19667      3.97695         0.004022     -0.002421     -0.001310
      3.94385      0.14130      6.39611        -0.000264      0.002550      0.000520
      6.45221      2.22799      6.09935        -0.000338     -0.001239      0.002150
      2.20468      4.28045      0.14841        -0.003147      0.000830      0.002099
      4.35164      2.02268      0.18356        -0.002078      0.003983      0.001573
      4.35020      4.04257      5.98672        -0.000345     -0.000682     -0.000173
      1.87081      1.96032      6.28903        -0.001208      0.000899     -0.002243
      6.23277      4.04258      8.02658        -0.001329      0.003372     -0.003377
      4.03057      6.33588      8.19325        -0.000278     -0.000578     -0.001371
      4.13369      4.01358      2.18248        -0.002135     -0.000090      0.000502
      6.25842      6.34677      2.21569        -0.001957     -0.002125     -0.000308
    total drift:                               -0.454255      0.612780      0.314028

  FREE ENERGIE OF THE ION-ELECTRON SYSTEM (eV)
  free  energy   TOTEN  =      -595.94525518 eV

  energy  without entropy=     -595.94525518  energy(sigma->0) =     -595.94525518

 reached required accuracy - stopping structural energy minimisation

 total charge

[...]

 magnetization (x)

# of ion       s       p       d       tot
    1        0.002   0.003   0.000   0.005
    2        0.002   0.003   0.000   0.005
    3        0.002   0.003   0.000   0.005
    4        0.002   0.003   0.000   0.005
    5        0.002   0.003   0.000   0.005
    6        0.002   0.003   0.000   0.005
    7        0.002   0.003   0.000   0.005
    8        0.022   0.038   3.070   3.130
    9        0.023   0.039   3.057   3.119
   10        0.031   0.035   3.836   3.902
   11        0.024   0.039   3.087   3.150
   12        0.033   0.035   3.865   3.933
   13        0.023   0.038   3.066   3.127
   14        0.023   0.038   3.088   3.149
   15        0.023   0.038   3.062   3.122
   16        0.023   0.039   3.076   3.138
   17        0.030   0.034   3.818   3.882
   18        0.022   0.038   3.046   3.106
   19        0.031   0.034   3.828   3.892
   20        0.023   0.038   3.069   3.130
   21        0.034   0.035   3.853   3.921
   22        0.030   0.034   3.865   3.930
   23        0.033   0.035   3.850   3.917
   24        0.006  -0.005   0.000   0.000
   25       -0.000  -0.100   0.000  -0.100
   26        0.000  -0.080   0.000  -0.080
   27       -0.000  -0.087   0.000  -0.087
   28        0.006   0.003   0.000   0.009
   29        0.001  -0.085   0.000  -0.084
   30        0.002  -0.072   0.000  -0.070
   31        0.005  -0.006   0.000  -0.001
   32        0.001  -0.071   0.000  -0.070
   33        0.003  -0.060   0.000  -0.058
   34        0.003  -0.058   0.000  -0.055
   35        0.006  -0.000   0.000   0.005
   36        0.001  -0.110   0.000  -0.109
   37        0.002  -0.128   0.000  -0.126
   38        0.002  -0.098   0.000  -0.096
   39        0.001  -0.116   0.000  -0.115
   40        0.005  -0.022   0.000  -0.017
   41        0.002  -0.067   0.000  -0.065
   42        0.000  -0.083   0.000  -0.082
   43        0.005  -0.018   0.000  -0.014
   44        0.005  -0.007   0.000  -0.002
   45        0.002  -0.067   0.000  -0.065
   46        0.005  -0.025   0.000  -0.020
   47        0.005  -0.007   0.000  -0.001
   48        0.006  -0.002   0.000   0.004
   49        0.002  -0.068   0.000  -0.067
   50        0.005  -0.009   0.000  -0.004
   51        0.005  -0.004   0.000   0.001
   52        0.005  -0.019   0.000  -0.014
   53        0.002  -0.079   0.000  -0.077
   54        0.000  -0.078   0.000  -0.078
   55        0.004  -0.031   0.000  -0.027
tot          0.538  -1.052  54.536  54.021